Version identifier: 20.1.0.0 | 2020-11-10 | 9bedb6d68
CPXPARAM_Threads                                 1
CPXPARAM_TimeLimit                               100
Generic callback                                 0xfe
Tried aggregator 2 times.
MIP Presolve eliminated 4 rows and 33 columns.
MIP Presolve modified 29 coefficients.
Aggregator did 1 substitutions.
Reduced MIP has 1097 rows, 26159 columns, and 77350 nonzeros.
Reduced MIP has 26158 binaries, 0 generals, 0 SOSs, and 0 indicators.
Presolve time = 0.03 sec. (40.04 ticks)
Tried aggregator 1 time.
Reduced MIP has 1097 rows, 26159 columns, and 77350 nonzeros.
Reduced MIP has 26158 binaries, 0 generals, 0 SOSs, and 0 indicators.
Presolve time = 0.02 sec. (22.77 ticks)
Probing time = 0.01 sec. (7.77 ticks)
Clique table members: 1884.
MIP emphasis: balance optimality and feasibility.
MIP search method: dynamic search.
Parallel mode: none, using 1 thread.
Root relaxation solution time = 0.01 sec. (11.83 ticks)

        Nodes                                         Cuts/
   Node  Left     Objective  IInf  Best Integer    Best Bound    ItCnt     Gap

      0     0    29177.0480    42                      0.0000        2         
      0     0    30583.7583    42                  MIRcuts: 1      125         
      0     0    30583.7583    46                     Cuts: 2      210         
      0     0    31918.0800     5                     Cuts: 2      227         
*     0+    0                        40704.4800    31918.0800            21.59%
Advanced basis not built.
      0     2    31918.0800     5    40704.4800    33093.1600      227   18.70%
Elapsed time = 8.04 sec. (3916.08 ticks, tree = 0.01 MB, solutions = 1)
      8    10    33093.1600    27    40704.4800    33093.1600      340   18.70%
      9    11    38963.4800    14    40704.4800    33093.1600      343   18.70%
     10    12    33102.1600    24    40704.4800    33093.1600      441   18.70%
     11    13    38963.4800    10    40704.4800    33093.1600      770   18.70%
     14    16    38963.4800    18    40704.4800    33093.1600      778   18.70%
     16    18    38963.4800    18    40704.4800    33093.1600     1913   18.70%
*    20+   20                        39904.9900    33093.1600            17.07%
Advanced basis not built.
     20    22    33597.4361    39    39904.9900    33093.1600     1951   17.07%
     22    24    38963.4800    14    39904.9900    33093.1600     1978   17.07%
     23    25    38963.4800    14    39904.9900    33093.1600     2838   17.07%
     27    29    38963.4800     6    39904.9900    33093.1600     2860   17.07%
Elapsed time = 95.19 sec. (79241.48 ticks, tree = 0.55 MB, solutions = 2)
     30    30    38963.4800    15    39904.9900    33093.1600     2866   17.07%
     35    30        cutoff          39904.9900    33093.1600     2885   17.07%
     41    34        cutoff          39904.9900    33093.1600     2898   17.07%
     58    50    39379.2833     9    39904.9900    33093.1600     3609   17.07%
     60    50    33102.1600    28    39904.9900    33093.1600     3764   17.07%

Mixed integer rounding cuts applied:  3
User cuts applied:  487

Root node processing (before b&c):
  Real time             =    8.06 sec. (3950.74 ticks)
Sequential b&c:
  Real time             =   91.68 sec. (82398.96 ticks)
                          ------------
Total (root+branch&cut) =   99.74 sec. (86349.70 ticks)
SOLUTION ADMISSIBLE TROUVEE 40704.479999999996 40704.479999999996 382.0 572.0
SOLUTION ADMISSIBLE TROUVEE 39904.99 39904.990000000005 572.0 572.0
